Line_mode KPOINTS file
20
Line_mode
Reciprocal
0.0 0.0 0.0 ! \Gamma
0.5 0.0 0.0 ! M

0.5 0.0 0.0 ! M
0.3333333333333333 0.3333333333333333 0.0 ! K

0.3333333333333333 0.3333333333333333 0.0 ! K
0.0 0.0 0.0 ! \Gamma

0.0 0.0 0.0 ! \Gamma
0.0 0.0 0.5 ! A

0.0 0.0 0.5 ! A
0.5 0.0 0.5 ! L

0.5 0.0 0.5 ! L
0.3333333333333333 0.3333333333333333 0.5 ! H

0.3333333333333333 0.3333333333333333 0.5 ! H
0.0 0.0 0.5 ! A

0.5 0.0 0.5 ! L
0.5 0.0 0.0 ! M

0.3333333333333333 0.3333333333333333 0.0 ! K
0.3333333333333333 0.3333333333333333 0.5 ! H

